
--- Job DIETER.gms Start 02/11/19 09:30:17 24.7.4 r58773 WEX-WEI x86 64bit/MS Windows
GAMS 24.7.4   Copyright (C) 1987-2016 GAMS Development. All rights reserved
Licensee: Medium MUD - 10 User License                   S180308:0349AO-GEN
          Deutsches Institut fuer Wirtschaftsforschung DIW, AbteilungDC3975
          License for teaching and research at degree granting institutions
          License Admin: Claudia Kemfert, bbibra@diw.de                    
--- Starting compilation
--- DIETER.gms(116) 2 Mb
--- .dataload.gms(375) 2 Mb
--- call gdxxrw data_input.xlsx @temp.tmp o=Data_input maxdupeerrors=100

GDXXRW           24.7.4 r58773 Released Sep 19, 2016 VS8 x86 32bit/MS Windows 
Input file : C:\Users\Lenovo\Documents\GitHub\prosumage\Code\Prosumage_Opt\Dieter_Module\DIETER_PROSUMOD_MCP\data_input.xlsx
Output file: C:\Users\Lenovo\Documents\GitHub\prosumage\Code\Prosumage_Opt\Dieter_Module\DIETER_PROSUMOD_MCP\Data_input.gdx
Total time = 1719 Ms
--- .dataload.gms(377) 2 Mb
--- GDXin=C:\Users\Lenovo\Documents\GitHub\prosumage\Code\Prosumage_Opt\Dieter_Module\DIETER_PROSUMOD_MCP\Data_input.gdx
--- .dataload.gms(406) 3 Mb
--- call gdxxrw time_series.xlsx @temp2.tmp o=time_series

GDXXRW           24.7.4 r58773 Released Sep 19, 2016 VS8 x86 32bit/MS Windows 
Input file : C:\Users\Lenovo\Documents\GitHub\prosumage\Code\Prosumage_Opt\Dieter_Module\DIETER_PROSUMOD_MCP\time_series.xlsx
Output file: C:\Users\Lenovo\Documents\GitHub\prosumage\Code\Prosumage_Opt\Dieter_Module\DIETER_PROSUMOD_MCP\time_series.gdx
Total time = 17953 Ms
--- .dataload.gms(407) 3 Mb
--- GDXin=C:\Users\Lenovo\Documents\GitHub\prosumage\Code\Prosumage_Opt\Dieter_Module\DIETER_PROSUMOD_MCP\time_series.gdx
--- .dataload.gms(538) 4 Mb
--- DIETER.gms(178) 4 Mb
--- .model.gms(825) 4 Mb
--- DIETER.gms(201) 4 Mb
--- .fix.gms(239) 5 Mb
--- DIETER.gms(202) 5 Mb
--- .scenario.gms(74) 5 Mb
--- DIETER.gms(245) 5 Mb
--- .report.gms(819) 5 Mb
--- DIETER.gms(261) 5 Mb
--- Starting execution: elapsed 0:00:19.939
--- DIETER.gms(1899) 19 Mb
--- Generating LP model DIETER
--- DIETER.gms(1023) 49 Mb  5 secs
--- DIETER.gms(1901) 53 Mb
---   96,363 rows  170,816 columns  387,711 non-zeroes
--- Executing CPLEX: elapsed 0:00:31.234

IBM ILOG CPLEX   24.7.4 r58773 Released Sep 19, 2016 WEI x86 64bit/MS Windows 
--- GAMS/Cplex licensed for continuous and discrete problems.
Cplex 12.6.3.0

Reading parameter(s) from "C:\Users\Lenovo\Documents\GitHub\prosumage\Code\Prosumage_Opt\Dieter_Module\DIETER_PROSUMOD_MCP\cplex.opt"
>>  lpmethod 4
>>  threads 4
>>  epgap 1e-3
Finished reading from "C:\Users\Lenovo\Documents\GitHub\prosumage\Code\Prosumage_Opt\Dieter_Module\DIETER_PROSUMOD_MCP\cplex.opt"
Reading data...
Starting Cplex...
Space for names approximately 7.92 Mb
Use option 'names no' to turn use of names off
Tried aggregator 1 time.
LP Presolve eliminated 65582 rows and 98660 columns.
Aggregator did 4195 substitutions.
Reduced LP has 26586 rows, 67961 columns, and 135237 nonzeros.
Presolve time = 0.26 sec. (87.42 ticks)
Parallel mode: using up to 4 threads for barrier.

***NOTE: Found 3 dense columns.

Number of nonzeros in lower triangle of A*A' = 84119
Using Approximate Minimum Degree ordering
Total time for automatic ordering = 0.06 sec. (8.58 ticks)
Summary statistics for Cholesky factor:
  Threads                   = 4
  Rows in Factor            = 26589
  Integer space required    = 54604
  Total non-zeros in factor = 298642
  Total FP ops to factor    = 4067342
 Itn      Primal Obj        Dual Obj  Prim Inf Upper Inf  Dual Inf Inf Ratio
   0  5.8199933e+011 -7.2531515e+011 7.96e+008 6.53e+008 2.81e+007 1.00e+000
   1  4.0929490e+011 -2.9038418e+011 5.85e+008 4.80e+008 9.48e+006 2.86e-007
   2  3.6681946e+011 -2.1372428e+011 5.31e+008 4.36e+008 6.39e+006 3.30e-007
   3  7.5903756e+010 -4.7793747e+010 1.10e+008 9.02e+007 1.43e+006 1.64e-006
   4  3.0976540e+010  2.5387408e+009 1.96e+007 1.60e+007 3.87e+005 6.04e-006
   5  2.4963073e+010  1.4334745e+010 8.75e+006 7.18e+006 1.27e+005 1.53e-005
   6  2.2563218e+010  1.7614837e+010 4.70e+006 3.85e+006 5.06e+004 3.51e-005
   7  2.1504072e+010  1.8536190e+010 2.94e+006 2.41e+006 2.85e+004 5.68e-005
   8  2.0824334e+010  1.9208245e+010 1.70e+006 1.39e+006 1.44e+004 1.05e-004
   9  2.0446586e+010  1.9624941e+010 9.79e+005 8.02e+005 6.13e+003 2.25e-004
  10  2.0201949e+010  1.9789046e+010 4.96e+005 4.06e+005 3.04e+003 4.13e-004
  11  2.0096070e+010  1.9876444e+010 2.68e+005 2.20e+005 1.59e+003 7.56e-004
  12  2.0059365e+010  1.9894247e+010 1.87e+005 1.54e+005 1.30e+003 9.06e-004
  13  2.0044634e+010  1.9915127e+010 1.53e+005 1.25e+005 9.80e+002 1.18e-003
  14  2.0038072e+010  1.9921624e+010 1.37e+005 1.12e+005 8.82e+002 1.30e-003
  15  2.0017113e+010  1.9928627e+010 8.73e+004 7.16e+004 7.77e+002 1.47e-003
  16  2.0007481e+010  1.9933973e+010 6.17e+004 5.06e+004 7.02e+002 1.62e-003
  17  1.9998839e+010  1.9940908e+010 3.80e+004 3.12e+004 6.07e+002 1.89e-003
  18  1.9993661e+010  1.9945953e+010 2.26e+004 1.85e+004 5.39e+002 2.14e-003
  19  1.9990696e+010  1.9952295e+010 1.37e+004 1.13e+004 4.54e+002 2.58e-003
  20  1.9988255e+010  1.9956777e+010 6.78e+003 5.56e+003 3.93e+002 3.01e-003
  21  1.9986937e+010  1.9961179e+010 3.35e+003 2.74e+003 3.33e+002 3.61e-003
  22  1.9985742e+010  1.9963776e+010 8.57e+002 7.02e+002 2.97e+002 4.09e-003
  23  1.9985507e+010  1.9969415e+010 5.22e+002 4.28e+002 2.19e+002 5.78e-003
  24  1.9984917e+010  1.9972204e+010 2.24e+002 1.84e+002 1.78e+002 7.25e-003
  25  1.9984661e+010  1.9974992e+010 1.41e+002 1.16e+002 1.37e+002 9.73e-003
  26  1.9984330e+010  1.9979276e+010 7.96e+001 6.53e+001 7.11e+001 2.05e-002
  27  1.9984188e+010  1.9979877e+010 6.73e+001 5.51e+001 6.08e+001 2.43e-002
  28  1.9984008e+010  1.9980467e+010 5.26e+001 4.31e+001 5.05e+001 2.96e-002
  29  1.9983726e+010  1.9981103e+010 3.35e+001 2.75e+001 3.89e+001 3.88e-002
  30  1.9983530e+010  1.9981870e+010 1.83e+001 1.50e+001 2.53e+001 6.22e-002
  31  1.9983428e+010  1.9982307e+010 1.24e+001 1.02e+001 1.71e+001 9.46e-002
  32  1.9983392e+010  1.9982575e+010 1.06e+001 8.69e+000 1.18e+001 1.39e-001
  33  1.9983196e+010  1.9983028e+010 2.14e+000 1.76e+000 2.45e+000 6.78e-001
  34  1.9983163e+010  1.9983119e+010 7.52e-001 6.16e-001 5.57e-001 3.04e+000
  35  1.9983147e+010  1.9983137e+010 8.54e-002 7.03e-002 1.51e-001 1.11e+001
  36  1.9983145e+010  1.9983144e+010 4.63e-003 3.82e-003 8.45e-003 2.00e+002
  37  1.9983145e+010  1.9983145e+010 2.38e-004 1.91e-004 4.23e-004 3.99e+003
  38  1.9983145e+010  1.9983145e+010 7.95e-003 9.62e-006 2.12e-005 7.96e+004
Barrier time = 1.92 sec. (766.86 ticks)
Parallel mode: deterministic, using up to 4 threads for concurrent optimization.

Dual crossover.
  Dual:  Fixing 2237 variables.
     2236 DMoves:  Infeasibility 2.22046435e-004  Objective 1.99831446e+010
     1775 DMoves:  Infeasibility 2.91067934e-006  Objective 1.99831446e+010
     1059 DMoves:  Infeasibility 5.27776336e-007  Objective 1.99831446e+010
        0 DMoves:  Infeasibility 5.57329702e-012  Objective 1.99831446e+010
  Dual:  Pushed 804, exchanged 1433.
  Primal:  Fixing 4089 variables.
     4088 PMoves:  Infeasibility 1.13213143e-012  Objective 1.99831446e+010
     1821 PMoves:  Infeasibility 6.25277607e-013  Objective 1.99831446e+010
Using devex.

Primal simplex solved model.

Total crossover time = 0.92 sec. (373.10 ticks)

Total time on 4 threads = 3.13 sec. (1231.03 ticks)
LP status(1): optimal
Cplex Time: 3.14sec (det. 1231.30 ticks)

Optimal solution found.
Objective : 19983144576.604362

--- Restarting execution
--- DIETER.gms(1901) 24 Mb
--- Reading solution for model DIETER
--- DIETER.gms(1901) 36 Mb
--- GDX Point C:\Users\Lenovo\Documents\GitHub\prosumage\Code\Prosumage_Opt\Dieter_Module\DIETER_PROSUMOD_MCP\DIETER_p.gdx
--- Executing after solve: elapsed 0:00:36.360
--- DIETER.gms(2742) 44 Mb
--- GDX File C:\Users\Lenovo\Documents\GitHub\prosumage\Code\Prosumage_Opt\Dieter_Module\DIETER_PROSUMOD_MCP\results.gdx
--- DIETER.gms(2752) 44 Mb

GDXXRW           24.7.4 r58773 Released Sep 19, 2016 VS8 x86 32bit/MS Windows 
Input file : C:\Users\Lenovo\Documents\GitHub\prosumage\Code\Prosumage_Opt\Dieter_Module\DIETER_PROSUMOD_MCP\results.gdx
Output file: C:\Users\Lenovo\Documents\GitHub\prosumage\Code\Prosumage_Opt\Dieter_Module\DIETER_PROSUMOD_MCP\results.xlsx
**** Data exceeds range for report_market_tech_hours

Any changes made to the spreadsheet were not saved
Total time = 2109 Ms
--- GDX File C:\Users\Lenovo\Documents\GitHub\prosumage\Code\Prosumage_Opt\Dieter_Module\DIETER_PROSUMOD_MCP\test.gdx
*** Status: Normal completion
--- Job DIETER.gms Stop 02/11/19 09:30:57 elapsed 0:00:39.483
